  8	68
 18
  0	 10	 11	 79	 78	 59	 19	127	 34	 87	102	 27	 64	 62	132	 95	130	137	
 10
  0	 35	103	 45	 46	 15	114	113	 83	137	
 16
  0	 28	  2	 61	 47	 96	115	 70	 68	 17	 31	129	 85	 99	136	137	
 34
  0	 67	 26	 49	  1	 42	 94	110	135	 69	 44	 14	117	112	 43	 25	 50	 93	 33	118	  3	 82	111	 51	119	101	 71	 37	 53	105	  5	121	 73	137	
 12
  0	 54	 21	122	 89	 22	 38	 40	 90	106	108	137	
 18
  0	 36	 29	 63	  4	 97	131	104	 72	 56	 41	124	 52	109	 48	116	120	137	
 22
  0	 39	 55	107	 20	 88	123	 13	  8	 76	  7	 75	 81	 65	 30	133	 58	 98	  9	126	 77	137	
 22
  0	 66	134	 60	 18	 24	 32	100	 16	128	 92	 86	 12	 57	 84	  6	 80	 23	 91	 74	125	137	
